;symbolic execution tree
(push)
(assert (le x0 java.lang.Object))
(check-sat)
(push)
(assert (le x1 java.lang.Object))
(check-sat)
(push)
(assert (le x2 java.lang.Object))
(check-sat)
(push)
(assert (le x3 java.lang.Object))
(check-sat)
(push)
(assert (le x4 java.lang.Object))
(check-sat)
(push)
(assert (le x5 java.lang.Object))
(check-sat)
(push)
(assert (le x6 java.lang.Object))
(check-sat)
(push)
(assert (le x7 java.lang.Object))
(check-sat)
(push)
(assert (le x8 java.lang.Object))
(check-sat)
(push)
(assert (le x9 java.lang.Object))
(check-sat)
(push)
(assert (le x10 java.lang.Object))
(check-sat)
(push)
(assert (le x11 java.lang.Object))
(check-sat)
(push)
(assert (le x12 java.lang.Object))
(check-sat)
(push)
(assert (le x13 java.lang.Object))
(check-sat)
(push)
(assert (le x14 java.lang.Object))
(check-sat)
(push)
(assert (le x15 java.lang.Object))
(check-sat)
(push)
(assert (= x2 java.lang.String))
(check-sat)
(push)
(assert (le x14 weka.core.Instances))
(check-sat)
(push)
(assert (= x3 java.lang.StringBuilder))
(check-sat)
(push)
(assert (le x7 weka.classifiers.trees.j48.Distribution))
(check-sat)
(push)
(assert (= x2 java.lang.String))
(check-sat)
(pop)
(push)
(assert (not (= x2 java.lang.String)))
(check-sat)
(pop)
(pop)
(push)
(assert (not (le x7 weka.classifiers.trees.j48.Distribution)))
(check-sat)
(pop)
(pop)
(push)
(assert (not (= x3 java.lang.StringBuilder)))
(check-sat)
(push)
(assert (le x15 weka.core.Instance))
(check-sat)
(pop)
(push)
(assert (not (le x15 weka.core.Instance)))
(check-sat)
(pop)
(push)
(assert (= x10 java.lang.String))
(check-sat)
(pop)
(push)
(assert (not (= x10 java.lang.String)))
(check-sat)
(pop)
(pop)
(push)
(assert (le x6 weka.core.Instances))
(check-sat)
(pop)
(push)
(assert (not (le x6 weka.core.Instances)))
(check-sat)
(pop)
(push)
(assert (le x7 weka.core.Instances))
(check-sat)
(pop)
(push)
(assert (not (le x7 weka.core.Instances)))
(check-sat)
(pop)
(pop)
(push)
(assert (not (le x14 weka.core.Instances)))
(check-sat)
(push)
(assert (= x9 java.lang.Boolean))
(check-sat)
(push)
(assert (le x12 weka.core.Instances))
(check-sat)
(push)
(assert (= x4 java.lang.Double))
(check-sat)
(pop)
(push)
(assert (not (= x4 java.lang.Double)))
(check-sat)
(pop)
(pop)
(push)
(assert (not (le x12 weka.core.Instances)))
(check-sat)
(push)
(assert (le x3 java.util.Vector))
(check-sat)
(pop)
(push)
(assert (not (le x3 java.util.Vector)))
(check-sat)
(pop)
(pop)
(push)
(assert (= x13 java.lang.StringBuilder))
(check-sat)
(pop)
(push)
(assert (not (= x13 java.lang.StringBuilder)))
(check-sat)
(pop)
(push)
(assert (le x6 java.lang.Object))
(check-sat)
(pop)
(push)
(assert (not (le x6 java.lang.Object)))
(check-sat)
(pop)
(pop)
(push)
(assert (not (= x9 java.lang.Boolean)))
(check-sat)
(pop)
(pop)
(pop)
(push)
(assert (not (= x2 java.lang.String)))
(check-sat)
(push)
(assert (= x9 java.lang.StringBuffer))
(check-sat)
(pop)
(push)
(assert (not (= x9 java.lang.StringBuffer)))
(check-sat)
(push)
(assert (le x14 weka.core.AttributeLocator))
(check-sat)
(pop)
(push)
(assert (not (le x14 weka.core.AttributeLocator)))
(check-sat)
(pop)
(push)
(assert (le x5 weka.core.Instance))
(check-sat)
(pop)
(push)
(assert (not (le x5 weka.core.Instance)))
(check-sat)
(pop)
(push)
(assert (le x6 java.util.Vector))
(check-sat)
(push)
(assert (= x12 java.lang.String))
(check-sat)
(pop)
(push)
(assert (not (= x12 java.lang.String)))
(check-sat)
(pop)
(pop)
(push)
(assert (not (le x6 java.util.Vector)))
(check-sat)
(pop)
(push)
(assert (= x9 java.lang.StringBuffer))
(check-sat)
(pop)
(push)
(assert (not (= x9 java.lang.StringBuffer)))
(check-sat)
(pop)
(push)
(assert (le x14 weka.core.Instance))
(check-sat)
(push)
(assert (= x15 java.lang.Boolean))
(check-sat)
(push)
(assert (= x15 java.lang.Boolean))
(check-sat)
(pop)
(push)
(assert (not (= x15 java.lang.Boolean)))
(check-sat)
(pop)
(pop)
(push)
(assert (not (= x15 java.lang.Boolean)))
(check-sat)
(pop)
(push)
(assert (le x15 java.util.Properties))
(check-sat)
(pop)
(push)
(assert (not (le x15 java.util.Properties)))
(check-sat)
(pop)
(push)
(assert (le x0 weka.core.Instances))
(check-sat)
(pop)
(push)
(assert (not (le x0 weka.core.Instances)))
(check-sat)
(pop)
(pop)
(push)
(assert (not (le x14 weka.core.Instance)))
(check-sat)
(pop)
(push)
(assert (le x5 java.io.File))
(check-sat)
(pop)
(push)
(assert (not (le x5 java.io.File)))
(check-sat)
(push)
(assert (le x1 weka.core.Instance))
(check-sat)
(pop)
(push)
(assert (not (le x1 weka.core.Instance)))
(check-sat)
(pop)
(pop)
(pop)
(push)
(assert (le x7 java.util.HashSet))
(check-sat)
(pop)
(push)
(assert (not (le x7 java.util.HashSet)))
(check-sat)
(push)
(assert (le x15 java.util.Vector))
(check-sat)
(push)
(assert (le x14 weka.core.FastVector))
(check-sat)
(pop)
(push)
(assert (not (le x14 weka.core.FastVector)))
(check-sat)
(pop)
(pop)
(push)
(assert (not (le x15 java.util.Vector)))
(check-sat)
(pop)
(push)
(assert (= x2 java.lang.String))
(check-sat)
(pop)
(push)
(assert (not (= x2 java.lang.String)))
(check-sat)
(push)
(assert (le x1 java.util.Vector))
(check-sat)
(pop)
(push)
(assert (not (le x1 java.util.Vector)))
(check-sat)
(pop)
(push)
(assert (le x13 weka.core.Instances))
(check-sat)
(push)
(assert (le x13 weka.core.Instances))
(check-sat)
(pop)
(push)
(assert (not (le x13 weka.core.Instances)))
(check-sat)
(pop)
(pop)
(push)
(assert (not (le x13 weka.core.Instances)))
(check-sat)
(push)
(assert (= x12 java.lang.StringBuffer))
(check-sat)
(pop)
(push)
(assert (not (= x12 java.lang.StringBuffer)))
(check-sat)
(pop)
(pop)
(push)
(assert (= x15 java.lang.String))
(check-sat)
(pop)
(push)
(assert (not (= x15 java.lang.String)))
(check-sat)
(pop)
(pop)
(pop)
(push)
(assert (= x2 java.lang.String))
(check-sat)
(pop)
(push)
(assert (not (= x2 java.lang.String)))
(check-sat)
(pop)
(push)
(assert (le x7 java.util.Vector))
(check-sat)
(pop)
(push)
(assert (not (le x7 java.util.Vector)))
(check-sat)
(pop)
(push)
(assert (= x15 java.lang.StringBuilder))
(check-sat)
(push)
(assert (= x5 java.lang.String))
(check-sat)
(push)
(assert (le x8 java.util.Vector))
(check-sat)
(pop)
(push)
(assert (not (le x8 java.util.Vector)))
(check-sat)
(pop)
(pop)
(push)
(assert (not (= x5 java.lang.String)))
(check-sat)
(pop)
(push)
(assert (le x4 weka.core.FastVector))
(check-sat)
(push)
(assert (le x9 weka.core.Instance))
(check-sat)
(pop)
(push)
(assert (not (le x9 weka.core.Instance)))
(check-sat)
(push)
(assert (= x11 java.lang.StringBuilder))
(check-sat)
(pop)
(push)
(assert (not (= x11 java.lang.StringBuilder)))
(check-sat)
(pop)
(pop)
(pop)
(push)
(assert (not (le x4 weka.core.FastVector)))
(check-sat)
(pop)
(pop)
(push)
(assert (not (= x15 java.lang.StringBuilder)))
(check-sat)
(pop)
(push)
(assert (= x5 java.lang.StringBuilder))
(check-sat)
(pop)
(push)
(assert (not (= x5 java.lang.StringBuilder)))
(check-sat)
(push)
(assert (le x12 weka.core.Attribute))
(check-sat)
(push)
(assert (le x4 weka.core.Instances))
(check-sat)
(pop)
(push)
(assert (not (le x4 weka.core.Instances)))
(check-sat)
(pop)
(push)
(assert (le x12 weka.core.Attribute))
(check-sat)
(pop)
(push)
(assert (not (le x12 weka.core.Attribute)))
(check-sat)
(pop)
(pop)
(push)
(assert (not (le x12 weka.core.Attribute)))
(check-sat)
(push)
(assert (= x13 java.lang.StringBuilder))
(check-sat)
(pop)
(push)
(assert (not (= x13 java.lang.StringBuilder)))
(check-sat)
(pop)
(push)
(assert (le x12 weka.core.Attribute))
(check-sat)
(pop)
(push)
(assert (not (le x12 weka.core.Attribute)))
(check-sat)
(push)
(assert (le x6 weka.core.Instances))
(check-sat)
(pop)
(push)
(assert (not (le x6 weka.core.Instances)))
(check-sat)
(pop)
(pop)
(pop)
(push)
(assert (le x9 weka.core.AttributeStats))
(check-sat)
(pop)
(push)
(assert (not (le x9 weka.core.AttributeStats)))
(check-sat)
(pop)
(push)
(assert (= x14 java.lang.String))
(check-sat)
(pop)
(push)
(assert (not (= x14 java.lang.String)))
(check-sat)
(pop)
(push)
(assert (le x4 weka.core.Instance))
(check-sat)
(pop)
(push)
(assert (not (le x4 weka.core.Instance)))
(check-sat)
(pop)
(push)
(assert (le x11 java.util.Vector))
(check-sat)
(pop)
(push)
(assert (not (le x11 java.util.Vector)))
(check-sat)
(push)
(assert (= x2 java.lang.String))
(check-sat)
(pop)
(push)
(assert (not (= x2 java.lang.String)))
(check-sat)
(push)
(assert (= x10 java.lang.StringBuilder))
(check-sat)
(pop)
(push)
(assert (not (= x10 java.lang.StringBuilder)))
(check-sat)
(pop)
(push)
(assert (= x7 java.lang.StringBuilder))
(check-sat)
(pop)
(push)
(assert (not (= x7 java.lang.StringBuilder)))
(check-sat)
(pop)
(pop)
(push)
(assert (le x11 java.util.Vector))
(check-sat)
(pop)
(push)
(assert (not (le x11 java.util.Vector)))
(check-sat)
(pop)
(push)
(assert (= x2 java.lang.String))
(check-sat)
(pop)
(push)
(assert (not (= x2 java.lang.String)))
(check-sat)
(pop)
(pop)
(pop)
(push)
(assert (le x9 weka.core.Instance))
(check-sat)
(push)
(assert (le x7 weka.core.Instance))
(check-sat)
(pop)
(push)
(assert (not (le x7 weka.core.Instance)))
(check-sat)
(pop)
(pop)
(push)
(assert (not (le x9 weka.core.Instance)))
(check-sat)
(pop)
(push)
(assert (= x7 java.lang.String))
(check-sat)
(push)
(assert (le x14 java.util.Vector))
(check-sat)
(push)
(assert (le x4 weka.core.Instance))
(check-sat)
(push)
(assert (= x2 java.lang.String))
(check-sat)
(pop)
(push)
(assert (not (= x2 java.lang.String)))
(check-sat)
(pop)
(pop)
(push)
(assert (not (le x4 weka.core.Instance)))
(check-sat)
(pop)
(pop)
(push)
(assert (not (le x14 java.util.Vector)))
(check-sat)
(pop)
(push)
(assert (le x6 weka.core.Instance))
(check-sat)
(pop)
(push)
(assert (not (le x6 weka.core.Instance)))
(check-sat)
(pop)
(pop)
(push)
(assert (not (= x7 java.lang.String)))
(check-sat)
(pop)
(pop)
